StringID Type x y demand ReadyTime DueDate ServiceTime
D0 d 40 50 0 0 240 0
Dt d 40 50 0 0 240 0
S0 f 40 50 0 0 240 0
S1 f 73 52 0 0 240 0
S2 f 90 55 0 0 240 0
S3 f 55 79 0 0 240 0
S4 f 69 89 0 0 240 0
S5 f 32 80 0 0 240 0
S6 f 39 96 0 0 240 0
S7 f 23 80 0 0 240 0
S8 f 4 83 0 0 240 0
S9 f 18 58 0 0 240 0
S10 f 1 56 0 0 240 0
S11 f 13 31 0 0 240 0
S12 f -5 38 0 0 240 0
S13 f 26 37 0 0 240 0
S14 f 28 13 0 0 240 0
S15 f 39 31 0 0 240 0
S16 f 48 11 0 0 240 0
S17 f 59 17 0 0 240 0
S18 f 73 23 0 0 240 0
S19 f 74 32 0 0 240 0
S20 f 90 44 0 0 240 0
C1 c3 25 85 20 131 191 10
C2 c3 22 75 30 69 129 10
C3 c2 22 85 10 98 158 10
C4 c1 20 80 40 46 106 10
C5 c3 20 85 20 124 184 10
C6 c3 18 75 20 90 150 10
C7 c1 15 75 20 87 147 10
C8 c3 15 80 10 80 140 10
C9 c1 10 35 20 108 168 10
C10 c2 10 40 30 74 134 10
C11 c3 8 40 40 71 131 10
C12 c2 8 45 20 96 156 10
C13 c3 5 35 10 39 99 10
C14 c1 5 45 10 36 96 10
C15 c2 2 40 20 88 148 10
C16 c1 0 40 20 128 188 10
C17 c1 0 45 20 129 189 10
C18 c2 44 5 20 64 124 10
C19 c2 42 10 40 48 108 10
C20 c3 42 15 10 104 164 10
C21 c1 40 5 10 125 185 10
C22 c2 40 15 40 91 151 10
C23 c3 38 5 30 74 134 10
C24 c3 38 15 10 93 153 10
C25 c2 35 5 20 96 156 10
C26 c3 95 30 30 88 148 10
C27 c2 95 35 20 112 172 10
C28 c3 92 30 10 114 174 10
C29 c2 90 35 10 113 173 10
C30 c3 88 30 10 114 174 10
C31 c3 88 35 20 87 147 10
C32 c1 87 30 10 67 127 10
C33 c1 85 25 10 84 144 10
C34 c3 85 35 30 122 182 10
C35 c3 67 85 20 125 185 10
C36 c1 65 85 40 57 117 10
C37 c1 65 82 10 56 116 10
C38 c1 62 80 30 75 135 10
C39 c3 60 80 10 85 145 10
C40 c2 60 85 30 129 189 10
C41 c3 58 75 20 95 155 10
C42 c2 55 80 10 34 94 10
C43 c2 55 85 20 92 152 10
C44 c2 55 82 10 36 96 10
C45 c1 20 82 10 38 98 10
C46 c3 18 80 10 114 174 10
C47 c1 2 45 10 49 109 10
C48 c3 42 5 10 124 184 10
C49 c3 42 12 10 70 130 10
C50 c1 72 35 30 134 194 10
C51 c2 55 20 19 134 194 10
C52 c3 25 30 3 43 103 10
C53 c3 20 50 5 20 80 10
C54 c1 55 60 16 151 211 10
C55 c1 30 60 16 15 75 10
C56 c2 50 35 19 118 178 10
C57 c3 30 25 23 27 87 10
C58 c2 15 10 20 56 116 10
C59 c2 10 20 19 50 110 10
C60 c3 15 60 17 143 203 10
C61 c2 45 65 9 154 214 10
C62 c1 65 35 3 30 90 10
C63 c3 65 20 6 46 106 10
C64 c2 45 30 17 50 110 10
C65 c2 35 40 16 16 76 10
C66 c3 41 37 16 14 74 10
C67 c3 64 42 9 144 204 10
C68 c2 40 60 21 84 144 10
C69 c3 31 52 27 10 70 10
C70 c2 35 69 23 68 128 10
C71 c2 65 55 14 35 95 10
C72 c3 63 65 8 91 151 10
C73 c3 2 60 5 80 140 10
C74 c2 20 20 8 104 164 10
C75 c2 5 5 16 65 125 10
C76 c3 60 12 31 55 115 10
C77 c3 23 3 7 75 135 10
C78 c2 8 56 27 62 122 10
C79 c3 6 68 30 39 99 10
C80 c2 47 47 13 29 89 10
C81 c3 49 58 10 142 202 10
C82 c2 27 43 9 99 159 10
C83 c3 37 31 14 103 163 10
C84 c2 57 29 18 58 118 10
C85 c1 63 23 2 50 110 10
C86 c1 21 24 28 135 195 10
C87 c3 12 24 13 43 103 10
C88 c2 24 58 19 79 139 10
C89 c1 67 5 25 114 174 10
C90 c3 37 47 6 130 190 10
C91 c3 49 42 13 61 121 10
C92 c1 53 43 14 125 185 10
C93 c1 61 52 3 29 89 10
C94 c1 57 48 23 152 212 10
C95 c2 56 37 6 51 111 10
C96 c1 55 54 26 154 214 10
C97 c3 4 18 35 119 179 10
C98 c1 26 52 9 128 188 10
C99 c2 26 35 15 36 96 10
C100 c3 31 67 3 20 80 10
P0 p 42 73 0 0 240 5
P1 p 7 42 0 0 240 5
P2 p 40 36 0 0 240 5
P3 p 42 8 0 0 240 5
P4 p 71 42 0 0 240 5
1 0 0 0 0
1 0 0 0 0
1 0 0 0 0
0 0 0 0 0
1 0 0 0 0
1 0 0 0 0
0 0 0 0 0
1 0 0 0 0
0 0 0 0 0
0 1 0 0 0
0 1 0 0 0
0 1 0 0 0
0 1 0 0 0
0 0 0 0 0
0 1 0 0 0
0 0 0 0 0
0 0 0 0 0
0 0 0 1 0
0 0 0 1 0
0 0 0 1 0
0 0 0 0 0
0 0 0 1 0
0 0 0 1 0
0 0 0 1 0
0 0 0 1 0
0 0 0 0 1
0 0 0 0 1
0 0 0 0 1
0 0 0 0 1
0 0 0 0 1
0 0 0 0 1
0 0 0 0 0
0 0 0 0 0
0 0 0 0 1
1 0 0 0 0
0 0 0 0 0
0 0 0 0 0
0 0 0 0 0
1 0 0 0 0
1 0 0 0 0
1 0 0 0 0
1 0 0 0 0
1 0 0 0 0
1 0 0 0 0
0 0 0 0 0
1 0 0 0 0
0 0 0 0 0
0 0 0 1 0
0 0 0 1 0
0 0 0 0 0
0 0 0 1 0
0 0 1 0 0
0 1 0 0 0
0 0 0 0 0
0 0 0 0 0
0 0 1 0 0
0 0 1 0 0
0 0 0 1 0
0 1 0 0 0
0 1 0 0 0
1 0 0 0 0
0 0 0 0 0
0 0 0 0 1
0 0 1 0 0
0 0 1 0 0
0 0 1 0 0
0 0 0 0 1
1 0 0 0 0
0 0 1 0 0
1 0 0 0 0
0 0 0 0 1
1 0 0 0 0
0 1 0 0 0
0 0 0 1 0
0 1 0 0 0
0 0 0 1 0
0 0 0 1 0
0 1 0 0 0
0 1 0 0 0
0 0 1 0 0
1 0 0 0 0
0 0 1 0 0
0 0 1 0 0
0 0 1 0 0
0 0 0 0 0
0 0 0 0 0
0 1 0 0 0
0 1 0 0 0
0 0 0 0 0
0 0 1 0 0
0 0 1 0 0
0 0 0 0 0
0 0 0 0 0
0 0 0 0 0
0 0 0 0 1
0 0 0 0 0
0 1 0 0 0
0 0 0 0 0
0 0 1 0 0
1 0 0 0 0
param Q := 79.69
param CV := 200
param r := 1
param g := 0.38
param V := 1
